752	693	713	709	695
763	765	617	624	765
749	562	545	545	641
765	765	765	552	561
626	573	671	633	623
765	608	691	624	566
654	608	765	665	711
687	733	615	561	700
700	727	624	548	730
681	555	765	581	765
